%NProcShared=8
%Mem=64GB
%Chk=benzene.chk
#P wb97xd/def2TZVP Opt Freq Int(Grid=UltraFine)

Opt+Freq ωB97X-D/def2-TZVP

0 1
C       0.807728     -1.137001      0.018444
C       1.388666      0.130880     -0.004605
C       0.580937      1.267881     -0.023051
C      -0.807728      1.137001     -0.018440
C      -1.388664     -0.130879      0.004618
C      -0.580937     -1.267881      0.023058
H       1.437040     -2.022857      0.032799
H       2.470595      0.232848     -0.008207
H       1.033557      2.255704     -0.041026
H      -1.437044      2.022855     -0.032820
H      -2.470593     -0.232848      0.008209
H      -1.033556     -2.255703      0.041019

--Link1--
%NProcShared=8
%Mem=64GB
%Chk=benzene.chk
#P dsdpbep86/def2QZVP EmpiricalDispersion=GD3BJ Guess=Read Geom=AllCheck

SP DSD-PBEP86/def2-QZVP

0 1

