%chk=conformer1.chk
%nprocshared=8
%mem=20GB
#p B97-3c Opt Freq Int=UltraFine

B97-3c geometry and frequencies for CC1CC2CC3CCCC2C13C, Conformer 1

0 1
C        -2.3779071381      -1.3904982780      -0.5418444336
C        -1.6626361213      -0.5032490337       0.4756339942
C        -2.0387830180       0.9950647109       0.4719456043
C        -0.7219198518       1.6116932029       0.0157320157
C        -0.5545033196       1.0236135698      -1.4468718266
C         0.4964759421       0.0125983418      -0.9927908700
C         1.7828430453      -0.7432386973      -1.2679752340
C         2.6265257137      -0.1445573831      -0.0637600441
C         1.8601681790       0.8349895883       0.9474999066
C         0.2824121820       0.8325104596       0.9968816022
C        -0.1123374901      -0.4928555302       0.3734444918
C         0.3912107026      -1.7905784619       0.9922954643
H        -1.9660979691      -1.2909900701      -1.5411137987
H        -3.4384389579      -1.1486158042      -0.5738851273
H        -2.2834280152      -2.4346037642      -0.2506440370
H        -1.9132227232      -0.9054494865       1.4633498958
H        -2.3253238151       1.3296275912       1.4706963185
H        -2.8583233454       1.2306386010      -0.2056959339
H        -0.6775743209       2.6997249415       0.0654108189
H        -0.1419460615       1.7508899750      -2.1474915824
H        -1.5001304438       0.6692711858      -1.8486718794
H         1.0915064887       0.8946397420      -0.7581166395
H         2.2420822813      -0.4635665005      -2.2159272892
H         1.7070123235      -1.8279231527      -1.2260199093
H         3.4357764859       0.4463444085      -0.4973902566
H         3.1095811187      -0.9385769762       0.5056362994
H         2.2152688034       1.8541612273       0.7718669308
H         2.1945250473       0.5670417008       1.9535731323
H        -0.0360869037       1.0250535390       2.0275708744
H         1.4610081215      -1.8317045102       1.1360700840
H         0.0919314809      -2.6346233167       0.3734595082
H        -0.0690921873      -1.9166555771       1.9716950576
