%Chk=G7.chk
%NProcShared=4
%Mem=8GB
#P B3LYP/6-31G(d) Opt Freq Density=Current

G7

0 1
C     -1.983538     2.210515    -1.356364
C     -1.859634     1.352240    -0.131127
C     -0.693265     0.441821     0.014904
C      0.440858     1.044104     0.463043
C      1.781422     0.434595     0.867769
C      2.753258     1.600714     1.187125
C      1.618709    -0.352972     2.189325
C      2.454189    -0.423358    -0.253825
C      1.515775    -1.082310    -1.265959
C      0.405435    -1.877070    -0.581899
C     -0.899989    -1.054370    -0.348410
C     -1.722860    -1.739121     0.765470
C     -1.732677    -1.146681    -1.658427
C     -2.730963     1.494073     0.870097
H     -1.791435     3.271446    -1.090955
H     -1.248562     1.901054    -2.129337
H     -3.004142     2.117988    -1.784666
H      0.374101     2.119790     0.609734
H      2.885322     2.258382     0.299955
H      2.368976     2.229727     2.020270
H      3.752720     1.212284     1.482413
H      2.592157    -0.777706     2.516964
H      1.249500     0.316469     2.996772
H      0.898279    -1.178808     2.117944
H      3.090659    -1.211230     0.206735
H      3.151086     0.201954    -0.855988
H      2.121608    -1.776030    -1.889800
H      1.100446    -0.317938    -1.957749
H      0.180500    -2.760512    -1.220534
H      0.785807    -2.345801     0.345719
H     -1.261795    -1.588164     1.761107
H     -2.755614    -1.333221     0.809048
H     -1.802995    -2.832253     0.579098
H     -1.208883    -0.640332    -2.496489
H     -2.735187    -0.682231    -1.543485
H     -1.909899    -2.205015    -1.949069
H     -3.559535     2.186740     0.789704
H     -2.619834     0.931227     1.788422

