%NProcShared=8
%Mem=64GB
%Chk=JP-10.chk
#P wb97xd/def2TZVP Opt Freq Int(Grid=UltraFine)

Opt+Freq ωB97X-D/def2-TZVP

0 1
C       2.581623      0.197450     -0.281796
C       1.812603     -0.897794      0.441544
C       0.496359     -0.227700      0.838330
C      -0.770067     -1.081687      0.620789
C      -1.972267     -0.320599      1.212431
C      -2.169134      0.841278      0.222947
C      -1.055990      0.605775     -0.816300
C      -1.035847     -0.924378     -0.879332
C       0.298176      0.941924     -0.157746
C       1.507151      0.904929     -1.093680
H       3.381541     -0.202883     -0.911037
H       3.027732      0.889595      0.442189
H       2.358249     -1.266315      1.315919
H       1.650324     -1.752176     -0.225119
H       0.563834      0.142596      1.868330
H      -0.684114     -2.109596      0.978916
H      -2.865413     -0.955545      1.228614
H      -1.787775      0.033571      2.231545
H      -3.158378      0.773496     -0.243881
H      -2.089933      1.816884      0.712832
H      -1.230377      1.114334     -1.766667
H      -0.243838     -1.330605     -1.513906
H      -1.994631     -1.352966     -1.191829
H       0.265506      1.903229      0.368939
H       1.819860      1.911138     -1.390035
H       1.294804      0.346046     -2.011995

--Link1--
%NProcShared=8
%Mem=64GB
%Chk=JP-10.chk
#P dsdpbep86/def2QZVP EmpiricalDispersion=GD3BJ Guess=Read Geom=AllCheck

SP DSD-PBEP86/def2-QZVP

0 1

