%Chk=JP-10.chk
%NProcShared=4
%Mem=8GB
#P B3LYP/6-31G(d) Opt Freq Density=Current

Generated by RDKit

0 1
C      2.571769    -0.075010    -0.311194
C      1.735966     1.130056     0.092689
C      0.453643     0.560545     0.709475
C     -0.850390     1.175436     0.142441
C     -2.031139     0.645283     0.978077
C     -2.127568    -0.827389     0.536123
C     -0.989507    -0.949111    -0.495146
C     -1.043055     0.413880    -1.151534
C      0.357529    -0.907297     0.268967
C      1.583806    -1.193779    -0.604707
H      3.204657     0.149379    -1.197000
H      3.225772    -0.372752     0.538235
H      1.519903     1.749060    -0.805470
H      2.283912     1.760081     0.826520
H      0.502770     0.642943     1.819006
H     -0.834458     2.281557     0.036999
H     -1.847864     0.737573     2.070919
H     -2.964083     1.192419     0.717745
H     -3.109329    -1.025760     0.052066
H     -1.996023    -1.525081     1.391889
H     -1.102300    -1.808578    -1.190468
H     -2.023447     0.624512    -1.639492
H     -0.230470     0.582714    -1.891394
H      0.356563    -1.589888     1.148926
H      2.025708    -2.183220    -0.356893
H      1.327636    -1.187576    -1.686779

