%chk=20250505_02.chk
%NProcShared=4
%Mem=8GB
#P B3LYP/6-31G(d) Opt Freq Density=Current

Generated by RDKit

0 1
C      4.501775     1.036621     0.458512
C      3.428898    -0.034579     0.222375
C      4.082453    -1.300888    -0.353779
C      2.322375     0.513257    -0.713672
C      0.996848    -0.273725    -0.628456
C      0.103457     0.182402     0.554955
C     -1.008463    -0.817196     0.944141
C     -1.577666    -1.770196    -0.103105
C     -3.034082    -1.988774     0.335678
C     -3.477590    -0.686228     1.034336
C     -4.470796     0.096144     0.160373
C     -2.172482     0.025364     1.249645
C     -1.945372     1.323068     1.068600
C     -0.607447     1.563982     0.442449
C     -0.825705     2.072965    -0.991441
H      4.969019     1.341348    -0.502784
H      5.292485     0.648471     1.135713
H      4.051445     1.931483     0.938911
H      2.991921    -0.289799     1.211615
H      4.879891    -1.663656     0.329483
H      4.534905    -1.092439    -1.347093
H      3.341414    -2.118199    -0.463086
H      2.124513     1.579973    -0.473677
H      2.687365     0.492302    -1.764194
H      1.213225    -1.356149    -0.520506
H      0.453081    -0.169932    -1.589525
H      0.762534     0.251172     1.449276
H     -0.719264    -1.392146     1.853159
H     -1.013657    -2.727198    -0.130736
H     -1.572450    -1.302103    -1.111780
H     -3.071753    -2.827779     1.065364
H     -3.670150    -2.258240    -0.536158
H     -3.948100    -0.908974     2.016679
H     -4.811411     1.010452     0.689979
H     -4.004158     0.383477    -0.806888
H     -5.366601    -0.527729    -0.044710
H     -2.727139     2.075887     1.082229
H     -0.056973     2.336535     1.022895
H      0.141347     2.289406    -1.487859
H     -1.405354     3.020697    -0.970362
H     -1.392337     1.330922    -1.594537

