%chk=20250505_01.chk
%NProcShared=4
%Mem=4GB
#P B3LYP/6-31G(d) Opt Freq

Generated by RDKit

0 1
C      4.219703    -0.271009    -0.860427
C      3.363567    -1.028054     0.162833
C      1.838482    -1.098013    -0.144374
C      1.526260    -1.260651    -1.646103
C      1.004233     0.033184     0.553136
C      1.470621     1.442511     0.129694
C      0.483607     2.501927     0.589798
C     -0.871548     2.285720    -0.097965
C     -1.878000     3.304185     0.466206
C     -1.355817     0.846465     0.057198
C     -0.506273    -0.168872     0.382032
C     -1.078225    -1.508771     0.685805
C     -2.295671    -1.855625     0.250063
C     -2.866284    -3.199317     0.598288
C     -3.056079    -0.901086    -0.629280
C     -2.830486     0.541881    -0.164230
H      5.261932    -0.201523    -0.483799
H      4.245234    -0.816315    -1.826995
H      3.848625     0.756451    -1.033815
H      3.525925    -0.583097     1.168380
H      3.762118    -2.065547     0.214827
H      1.517529    -2.052984     0.323203
H      2.092206    -2.123858    -2.056527
H      1.797120    -0.354987    -2.224636
H      0.446885    -1.465734    -1.803037
H      1.193926    -0.047859     1.647134
H      1.576290     1.517464    -0.972533
H      2.455231     1.664708     0.593903
H      0.372782     2.451144     1.696536
H      0.883018     3.506146     0.326575
H     -0.751917     2.488614    -1.185258
H     -2.811077     3.317941    -0.133304
H     -2.127082     3.062807     1.522090
H     -1.453005     4.330157     0.426658
H     -0.511648    -2.206187     1.290323
H     -3.860402    -3.347308     0.126865
H     -2.980974    -3.283709     1.699570
H     -2.186558    -4.001109     0.239631
H     -4.143988    -1.126903    -0.615184
H     -2.690174    -1.011027    -1.673393
H     -3.377813     0.710297     0.788498
H     -3.252275     1.217946    -0.937693

