%NProcShared=6
%Mem=10GB
%Chk=20250602_GAN_ex.chk
#P wb97xd/def2TZVP Opt Freq Int(Grid=UltraFine)

Opt+Freq ωB97X-D/def2-TZVP

0 1
C       3.739308     -1.765244      1.119592
C       2.665554     -0.761988      0.784474
C       3.181517      0.490893      0.133426
C       1.371146     -1.030876      1.055656
C       0.129929     -0.177957      0.824247
C       0.213856      1.081416      1.723155
C      -0.521374      2.314815      1.223562
C      -1.983852      2.093846      1.036938
C      -2.544363      1.289207      0.117454
C      -4.049303      1.268955     -0.015782
C      -1.772923      0.432615     -0.876876
C      -2.428297     -0.946176     -1.128227
C      -1.334715     -1.700898     -1.798529
C      -0.141926     -1.135084     -1.574179
C       1.139576     -1.572514     -2.195146
C      -0.251524      0.086887     -0.666390
H       4.267349     -2.072639      0.210945
H       4.464318     -1.326261      1.812790
H       3.334981     -2.667804      1.589746
H       3.726350      0.241573     -0.783255
H       2.392751      1.193485     -0.140704
H       3.866326      1.011823      0.810650
H       1.141466     -1.993091      1.516497
H      -0.693674     -0.778611      1.241528
H      -0.165899      0.815559      2.720326
H       1.254599      1.380882      1.893936
H      -0.388450      3.118498      1.959236
H      -0.074755      2.695422      0.297676
H      -2.625216      2.684215      1.690278
H      -4.341155      1.475700     -1.050798
H      -4.532586      2.024001      0.613879
H      -4.451672      0.294320      0.277034
H      -1.831460      0.985324     -1.830494
H      -2.731018     -1.451809     -0.204802
H      -3.296769     -0.854444     -1.788776
H      -1.503710     -2.575839     -2.411221
H       1.709316     -0.708227     -2.550096
H       1.753098     -2.139334     -1.492301
H       0.957672     -2.218755     -3.061027
H       0.355529      0.898119     -1.084420

--Link1--
%NProcShared=6
%Mem=10GB
%Chk=20250602_GAN_ex.chk
#P dsd-pbep86/def2QZVP EmpiricalDispersion=GD3BJ Guess=Read Geom=AllCheck

SP DSD-PBEP86/def2-QZVP

0 1

