%NProcShared=6
%Mem=10GB
%Chk=20250602_isoalkane.chk
#P wb97xd/def2TZVP Opt Freq Int(Grid=UltraFine)

Opt+Freq ωB97X-D/def2-TZVP

0 1
C      -4.800108      0.392161     -1.199401
C      -4.096035     -0.938405     -0.970367
C      -3.027730     -0.939158      0.143170
C      -3.644714     -0.634208      1.510914
C      -1.858974      0.011303     -0.190370
C      -0.662764     -0.150417      0.757917
C       0.602036      0.605300      0.291055
C       0.358059      2.118220      0.230022
C       1.773363      0.272053      1.243601
C       3.163375      0.635891      0.697458
C       3.934015     -0.551024      0.083652
C       3.227545     -1.161134     -1.125878
C       5.343084     -0.102512     -0.314063
H      -5.543004      0.286125     -1.996946
H      -5.325912      0.729555     -0.301726
H      -4.097608      1.172178     -1.506184
H      -4.853646     -1.696895     -0.736461
H      -3.629529     -1.253020     -1.912273
H      -2.628630     -1.961712      0.186493
H      -4.532470     -1.251693      1.684447
H      -3.937376      0.417052      1.597381
H      -2.937691     -0.851404      2.317799
H      -2.210379      1.048352     -0.157680
H      -1.524578     -0.184503     -1.216830
H      -0.936670      0.190580      1.763537
H      -0.423790     -1.218558      0.837964
H       0.850427      0.261358     -0.719044
H      -0.398939      2.367052     -0.520006
H       1.264823      2.664136     -0.045427
H       0.016257      2.502304      1.197167
H       1.616893      0.818386      2.183463
H       1.757791     -0.791811      1.510525
H       3.757101      1.016756      1.539264
H       3.104831      1.454294     -0.027952
H       4.037250     -1.332219      0.847696
H       2.274659     -1.616709     -0.840224
H       3.033357     -0.406475     -1.895329
H       3.839245     -1.950853     -1.575600
H       5.309887      0.675999     -1.083922
H       5.923216     -0.943963     -0.707659
H       5.883332      0.297621      0.550458

--Link1--
%NProcShared=6
%Mem=10GB
%Chk=20250602_isoalkane.chk
#P dsd-pbep86/def2QZVP EmpiricalDispersion=GD3BJ Guess=Read Geom=AllCheck

SP DSD-PBEP86/def2-QZVP

0 1

